(declare-sort Loc 0)
(declare-const l0 Loc)
(declare-const l1 Loc)
(declare-const l2 Loc)
(declare-const l3 Loc)
(declare-const l4 Loc)
(declare-const l5 Loc)
(declare-const l6 Loc)
(declare-const l7 Loc)
(declare-const l8 Loc)
(declare-const l9 Loc)
(declare-const l10 Loc)
(declare-const l11 Loc)
(declare-const l12 Loc)
(declare-const l13 Loc)
(declare-const l14 Loc)
(declare-const l15 Loc)
(declare-const l16 Loc)
(declare-const l17 Loc)
(declare-const l18 Loc)
(declare-const l19 Loc)
(assert (distinct l0 l1 l2 l3 l4 l5 l6 l7 l8 l9 l10 l11 l12 l13 l14 l15 l16 l17 l18 l19))

(define-fun cfg_init ( (pc Loc) (src Loc) (rel Bool) ) Bool
  (and (= pc src) rel))

(define-fun cfg_trans2 ( (pc Loc) (src Loc)
                         (pc1 Loc) (dst Loc)
                         (rel Bool) ) Bool
  (and (= pc src) (= pc1 dst) rel))

(define-fun cfg_trans3 ( (pc Loc) (exit Loc)
                         (pc1 Loc) (call Loc)
                         (pc2 Loc) (return Loc)
                         (rel Bool) ) Bool
  (and (= pc exit) (= pc1 call) (= pc2 return) rel))

(define-fun init_main ( (pc^0 Loc) (i13^0 Int) (i17^0 Int) (i9^0 Int) (i^0 Int) (j^0 Int) (k^0 Int) (ret_foo10^0 Int) (ret_foo14^0 Int) (ret_foo18^0 Int) (tmp^0 Int) (tmp___0^0 Int) (tmp___1^0 Int) (x11^0 Int) (x15^0 Int) (x7^0 Int) (y12^0 Int) (y16^0 Int) (y8^0 Int) ) Bool
  (cfg_init pc^0 l19 true))

(define-fun next_main (
                 (pc^0 Loc) (i13^0 Int) (i17^0 Int) (i9^0 Int) (i^0 Int) (j^0 Int) (k^0 Int) (ret_foo10^0 Int) (ret_foo14^0 Int) (ret_foo18^0 Int) (tmp^0 Int) (tmp___0^0 Int) (tmp___1^0 Int) (x11^0 Int) (x15^0 Int) (x7^0 Int) (y12^0 Int) (y16^0 Int) (y8^0 Int)
                 (pc^post Loc) (i13^post Int) (i17^post Int) (i9^post Int) (i^post Int) (j^post Int) (k^post Int) (ret_foo10^post Int) (ret_foo14^post Int) (ret_foo18^post Int) (tmp^post Int) (tmp___0^post Int) (tmp___1^post Int) (x11^post Int) (x15^post Int) (x7^post Int) (y12^post Int) (y16^post Int) (y8^post Int)
             ) Bool
  (or
    (cfg_trans2 pc^0 l0 pc^post l1 (and (and (and (and (and (and (and (and (and (and (and (and (and (and (and (and (and (and (<= (+ 1 y8^0) (+ 0 x7^0)) (= i^0 i^post)) (= i13^0 i13^post)) (= i17^0 i17^post)) (= i9^0 i9^post)) (= j^0 j^post)) (= k^0 k^post)) (= ret_foo10^0 ret_foo10^post)) (= ret_foo14^0 ret_foo14^post)) (= ret_foo18^0 ret_foo18^post)) (= tmp^0 tmp^post)) (= tmp___0^0 tmp___0^post)) (= tmp___1^0 tmp___1^post)) (= x11^0 x11^post)) (= x15^0 x15^post)) (= x7^0 x7^post)) (= y12^0 y12^post)) (= y16^0 y16^post)) (= y8^0 y8^post)))
    (cfg_trans2 pc^0 l0 pc^post l1 (and (and (and (and (and (and (and (and (and (and (and (and (and (and (and (and (and (and (<= (+ 1 x7^0) (+ 0 y8^0)) (= i^0 i^post)) (= i13^0 i13^post)) (= i17^0 i17^post)) (= i9^0 i9^post)) (= j^0 j^post)) (= k^0 k^post)) (= ret_foo10^0 ret_foo10^post)) (= ret_foo14^0 ret_foo14^post)) (= ret_foo18^0 ret_foo18^post)) (= tmp^0 tmp^post)) (= tmp___0^0 tmp___0^post)) (= tmp___1^0 tmp___1^post)) (= x11^0 x11^post)) (= x15^0 x15^post)) (= x7^0 x7^post)) (= y12^0 y12^post)) (= y16^0 y16^post)) (= y8^0 y8^post)))
    (cfg_trans2 pc^0 l0 pc^post l2 (and (and (and (and (and (and (and (and (and (and (and (and (and (and (and (and (and (and (and (<= (+ 0 x7^0) (+ 0 y8^0)) (<= (+ 0 y8^0) (+ 0 x7^0))) (= ret_foo10^post (+ 0 x7^0))) (= i^0 i^post)) (= i13^0 i13^post)) (= i17^0 i17^post)) (= i9^0 i9^post)) (= j^0 j^post)) (= k^0 k^post)) (= ret_foo14^0 ret_foo14^post)) (= ret_foo18^0 ret_foo18^post)) (= tmp^0 tmp^post)) (= tmp___0^0 tmp___0^post)) (= tmp___1^0 tmp___1^post)) (= x11^0 x11^post)) (= x15^0 x15^post)) (= x7^0 x7^post)) (= y12^0 y12^post)) (= y16^0 y16^post)) (= y8^0 y8^post)))
    (cfg_trans2 pc^0 l3 pc^post l4 (and (and (and (and (and (and (and (and (and (and (and (and (and (and (and (and (and (= i^0 i^post) (= i13^0 i13^post)) (= i17^0 i17^post)) (= i9^0 i9^post)) (= j^0 j^post)) (= k^0 k^post)) (= ret_foo10^0 ret_foo10^post)) (= ret_foo14^0 ret_foo14^post)) (= ret_foo18^0 ret_foo18^post)) (= tmp^0 tmp^post)) (= tmp___0^0 tmp___0^post)) (= tmp___1^0 tmp___1^post)) (= x11^0 x11^post)) (= x15^0 x15^post)) (= x7^0 x7^post)) (= y12^0 y12^post)) (= y16^0 y16^post)) (= y8^0 y8^post)))
    (cfg_trans2 pc^0 l5 pc^post l3 (and (and (and (and (and (and (and (and (and (and (and (and (and (and (and (and (and (and (<= (+ 0 i^0) 4) (= i^0 i^post)) (= i13^0 i13^post)) (= i17^0 i17^post)) (= i9^0 i9^post)) (= j^0 j^post)) (= k^0 k^post)) (= ret_foo10^0 ret_foo10^post)) (= ret_foo14^0 ret_foo14^post)) (= ret_foo18^0 ret_foo18^post)) (= tmp^0 tmp^post)) (= tmp___0^0 tmp___0^post)) (= tmp___1^0 tmp___1^post)) (= x11^0 x11^post)) (= x15^0 x15^post)) (= x7^0 x7^post)) (= y12^0 y12^post)) (= y16^0 y16^post)) (= y8^0 y8^post)))
    (cfg_trans2 pc^0 l5 pc^post l3 (and (and (and (and (and (and (and (and (and (and (and (and (and (and (and (and (and (and (<= 5 (+ 0 i^0)) (= i^0 i^post)) (= i13^0 i13^post)) (= i17^0 i17^post)) (= i9^0 i9^post)) (= j^0 j^post)) (= k^0 k^post)) (= ret_foo10^0 ret_foo10^post)) (= ret_foo14^0 ret_foo14^post)) (= ret_foo18^0 ret_foo18^post)) (= tmp^0 tmp^post)) (= tmp___0^0 tmp___0^post)) (= tmp___1^0 tmp___1^post)) (= x11^0 x11^post)) (= x15^0 x15^post)) (= x7^0 x7^post)) (= y12^0 y12^post)) (= y16^0 y16^post)) (= y8^0 y8^post)))
    (cfg_trans2 pc^0 l6 pc^post l5 (and (and (and (and (and (and (and (and (and (and (and (and (and (and (and (and (and (= tmp___1^post (+ 0 ret_foo18^0)) (= k^post (+ 0 tmp___1^post))) (= i^0 i^post)) (= i13^0 i13^post)) (= i17^0 i17^post)) (= i9^0 i9^post)) (= j^0 j^post)) (= ret_foo10^0 ret_foo10^post)) (= ret_foo14^0 ret_foo14^post)) (= ret_foo18^0 ret_foo18^post)) (= tmp^0 tmp^post)) (= tmp___0^0 tmp___0^post)) (= x11^0 x11^post)) (= x15^0 x15^post)) (= x7^0 x7^post)) (= y12^0 y12^post)) (= y16^0 y16^post)) (= y8^0 y8^post)))
    (cfg_trans2 pc^0 l7 pc^post l8 (and (and (and (and (and (and (and (and (and (and (and (and (and (and (and (and (and (and (<= (+ 0 x15^0) 0) (= i^0 i^post)) (= i13^0 i13^post)) (= i17^0 i17^post)) (= i9^0 i9^post)) (= j^0 j^post)) (= k^0 k^post)) (= ret_foo10^0 ret_foo10^post)) (= ret_foo14^0 ret_foo14^post)) (= ret_foo18^0 ret_foo18^post)) (= tmp^0 tmp^post)) (= tmp___0^0 tmp___0^post)) (= tmp___1^0 tmp___1^post)) (= x11^0 x11^post)) (= x15^0 x15^post)) (= x7^0 x7^post)) (= y12^0 y12^post)) (= y16^0 y16^post)) (= y8^0 y8^post)))
    (cfg_trans2 pc^0 l7 pc^post l8 (and (and (and (and (and (and (and (and (and (and (and (and (and (and (and (and (and (and (<= 1 (+ 0 x15^0)) (= y16^post (+ (+ 0 x15^0) y16^0))) (= i^0 i^post)) (= i13^0 i13^post)) (= i17^0 i17^post)) (= i9^0 i9^post)) (= j^0 j^post)) (= k^0 k^post)) (= ret_foo10^0 ret_foo10^post)) (= ret_foo14^0 ret_foo14^post)) (= ret_foo18^0 ret_foo18^post)) (= tmp^0 tmp^post)) (= tmp___0^0 tmp___0^post)) (= tmp___1^0 tmp___1^post)) (= x11^0 x11^post)) (= x15^0 x15^post)) (= x7^0 x7^post)) (= y12^0 y12^post)) (= y8^0 y8^post)))
    (cfg_trans2 pc^0 l9 pc^post l6 (and (and (and (and (and (and (and (and (and (and (and (and (and (and (and (and (and (and (<= (+ 1 x15^0) (+ 0 i17^0)) (= ret_foo18^post (+ 0 y16^0))) (= i^0 i^post)) (= i13^0 i13^post)) (= i17^0 i17^post)) (= i9^0 i9^post)) (= j^0 j^post)) (= k^0 k^post)) (= ret_foo10^0 ret_foo10^post)) (= ret_foo14^0 ret_foo14^post)) (= tmp^0 tmp^post)) (= tmp___0^0 tmp___0^post)) (= tmp___1^0 tmp___1^post)) (= x11^0 x11^post)) (= x15^0 x15^post)) (= x7^0 x7^post)) (= y12^0 y12^post)) (= y16^0 y16^post)) (= y8^0 y8^post)))
    (cfg_trans2 pc^0 l9 pc^post l7 (and (and (and (and (and (and (and (and (and (and (and (and (and (and (and (and (and (and (<= (+ 0 i17^0) (+ 0 x15^0)) (= i^0 i^post)) (= i13^0 i13^post)) (= i17^0 i17^post)) (= i9^0 i9^post)) (= j^0 j^post)) (= k^0 k^post)) (= ret_foo10^0 ret_foo10^post)) (= ret_foo14^0 ret_foo14^post)) (= ret_foo18^0 ret_foo18^post)) (= tmp^0 tmp^post)) (= tmp___0^0 tmp___0^post)) (= tmp___1^0 tmp___1^post)) (= x11^0 x11^post)) (= x15^0 x15^post)) (= x7^0 x7^post)) (= y12^0 y12^post)) (= y16^0 y16^post)) (= y8^0 y8^post)))
    (cfg_trans2 pc^0 l1 pc^post l10 (and (and (and (and (and (and (and (and (and (and (and (and (and (and (and (and (and (= i^0 i^post) (= i13^0 i13^post)) (= i17^0 i17^post)) (= i9^0 i9^post)) (= j^0 j^post)) (= k^0 k^post)) (= ret_foo10^0 ret_foo10^post)) (= ret_foo14^0 ret_foo14^post)) (= ret_foo18^0 ret_foo18^post)) (= tmp^0 tmp^post)) (= tmp___0^0 tmp___0^post)) (= tmp___1^0 tmp___1^post)) (= x11^0 x11^post)) (= x15^0 x15^post)) (= x7^0 x7^post)) (= y12^0 y12^post)) (= y16^0 y16^post)) (= y8^0 y8^post)))
    (cfg_trans2 pc^0 l11 pc^post l8 (and (and (and (and (and (and (and (and (and (and (and (and (and (and (and (and (and (and (<= (+ 1 y16^0) (+ 0 x15^0)) (= i^0 i^post)) (= i13^0 i13^post)) (= i17^0 i17^post)) (= i9^0 i9^post)) (= j^0 j^post)) (= k^0 k^post)) (= ret_foo10^0 ret_foo10^post)) (= ret_foo14^0 ret_foo14^post)) (= ret_foo18^0 ret_foo18^post)) (= tmp^0 tmp^post)) (= tmp___0^0 tmp___0^post)) (= tmp___1^0 tmp___1^post)) (= x11^0 x11^post)) (= x15^0 x15^post)) (= x7^0 x7^post)) (= y12^0 y12^post)) (= y16^0 y16^post)) (= y8^0 y8^post)))
    (cfg_trans2 pc^0 l11 pc^post l8 (and (and (and (and (and (and (and (and (and (and (and (and (and (and (and (and (and (and (<= (+ 1 x15^0) (+ 0 y16^0)) (= i^0 i^post)) (= i13^0 i13^post)) (= i17^0 i17^post)) (= i9^0 i9^post)) (= j^0 j^post)) (= k^0 k^post)) (= ret_foo10^0 ret_foo10^post)) (= ret_foo14^0 ret_foo14^post)) (= ret_foo18^0 ret_foo18^post)) (= tmp^0 tmp^post)) (= tmp___0^0 tmp___0^post)) (= tmp___1^0 tmp___1^post)) (= x11^0 x11^post)) (= x15^0 x15^post)) (= x7^0 x7^post)) (= y12^0 y12^post)) (= y16^0 y16^post)) (= y8^0 y8^post)))
    (cfg_trans2 pc^0 l11 pc^post l6 (and (and (and (and (and (and (and (and (and (and (and (and (and (and (and (and (and (and (and (<= (+ 0 x15^0) (+ 0 y16^0)) (<= (+ 0 y16^0) (+ 0 x15^0))) (= ret_foo18^post (+ 0 x15^0))) (= i^0 i^post)) (= i13^0 i13^post)) (= i17^0 i17^post)) (= i9^0 i9^post)) (= j^0 j^post)) (= k^0 k^post)) (= ret_foo10^0 ret_foo10^post)) (= ret_foo14^0 ret_foo14^post)) (= tmp^0 tmp^post)) (= tmp___0^0 tmp___0^post)) (= tmp___1^0 tmp___1^post)) (= x11^0 x11^post)) (= x15^0 x15^post)) (= x7^0 x7^post)) (= y12^0 y12^post)) (= y16^0 y16^post)) (= y8^0 y8^post)))
    (cfg_trans2 pc^0 l12 pc^post l11 (and (and (and (and (and (and (and (and (and (and (and (and (and (and (and (and (and (= tmp___0^post (+ 0 ret_foo14^0)) (= j^post (+ 0 tmp___0^post))) (= x15^post 3)) (= y16^post -6)) (= i17^post 0)) (= i^0 i^post)) (= i13^0 i13^post)) (= i9^0 i9^post)) (= k^0 k^post)) (= ret_foo10^0 ret_foo10^post)) (= ret_foo14^0 ret_foo14^post)) (= ret_foo18^0 ret_foo18^post)) (= tmp^0 tmp^post)) (= tmp___1^0 tmp___1^post)) (= x11^0 x11^post)) (= x7^0 x7^post)) (= y12^0 y12^post)) (= y8^0 y8^post)))
    (cfg_trans2 pc^0 l13 pc^post l14 (and (and (and (and (and (and (and (and (and (and (and (and (and (and (and (and (and (= i^0 i^post) (= i13^0 i13^post)) (= i17^0 i17^post)) (= i9^0 i9^post)) (= j^0 j^post)) (= k^0 k^post)) (= ret_foo10^0 ret_foo10^post)) (= ret_foo14^0 ret_foo14^post)) (= ret_foo18^0 ret_foo18^post)) (= tmp^0 tmp^post)) (= tmp___0^0 tmp___0^post)) (= tmp___1^0 tmp___1^post)) (= x11^0 x11^post)) (= x15^0 x15^post)) (= x7^0 x7^post)) (= y12^0 y12^post)) (= y16^0 y16^post)) (= y8^0 y8^post)))
    (cfg_trans2 pc^0 l15 pc^post l13 (and (and (and (and (and (and (and (and (and (and (and (and (and (and (and (and (and (and (<= (+ 0 x11^0) 0) (= i^0 i^post)) (= i13^0 i13^post)) (= i17^0 i17^post)) (= i9^0 i9^post)) (= j^0 j^post)) (= k^0 k^post)) (= ret_foo10^0 ret_foo10^post)) (= ret_foo14^0 ret_foo14^post)) (= ret_foo18^0 ret_foo18^post)) (= tmp^0 tmp^post)) (= tmp___0^0 tmp___0^post)) (= tmp___1^0 tmp___1^post)) (= x11^0 x11^post)) (= x15^0 x15^post)) (= x7^0 x7^post)) (= y12^0 y12^post)) (= y16^0 y16^post)) (= y8^0 y8^post)))
    (cfg_trans2 pc^0 l15 pc^post l13 (and (and (and (and (and (and (and (and (and (and (and (and (and (and (and (and (and (and (<= 1 (+ 0 x11^0)) (= y12^post (+ (+ 0 x11^0) y12^0))) (= i^0 i^post)) (= i13^0 i13^post)) (= i17^0 i17^post)) (= i9^0 i9^post)) (= j^0 j^post)) (= k^0 k^post)) (= ret_foo10^0 ret_foo10^post)) (= ret_foo14^0 ret_foo14^post)) (= ret_foo18^0 ret_foo18^post)) (= tmp^0 tmp^post)) (= tmp___0^0 tmp___0^post)) (= tmp___1^0 tmp___1^post)) (= x11^0 x11^post)) (= x15^0 x15^post)) (= x7^0 x7^post)) (= y16^0 y16^post)) (= y8^0 y8^post)))
    (cfg_trans2 pc^0 l14 pc^post l12 (and (and (and (and (and (and (and (and (and (and (and (and (and (and (and (and (and (and (<= (+ 1 x11^0) (+ 0 i13^0)) (= ret_foo14^post (+ 0 y12^0))) (= i^0 i^post)) (= i13^0 i13^post)) (= i17^0 i17^post)) (= i9^0 i9^post)) (= j^0 j^post)) (= k^0 k^post)) (= ret_foo10^0 ret_foo10^post)) (= ret_foo18^0 ret_foo18^post)) (= tmp^0 tmp^post)) (= tmp___0^0 tmp___0^post)) (= tmp___1^0 tmp___1^post)) (= x11^0 x11^post)) (= x15^0 x15^post)) (= x7^0 x7^post)) (= y12^0 y12^post)) (= y16^0 y16^post)) (= y8^0 y8^post)))
    (cfg_trans2 pc^0 l14 pc^post l15 (and (and (and (and (and (and (and (and (and (and (and (and (and (and (and (and (and (and (<= (+ 0 i13^0) (+ 0 x11^0)) (= i^0 i^post)) (= i13^0 i13^post)) (= i17^0 i17^post)) (= i9^0 i9^post)) (= j^0 j^post)) (= k^0 k^post)) (= ret_foo10^0 ret_foo10^post)) (= ret_foo14^0 ret_foo14^post)) (= ret_foo18^0 ret_foo18^post)) (= tmp^0 tmp^post)) (= tmp___0^0 tmp___0^post)) (= tmp___1^0 tmp___1^post)) (= x11^0 x11^post)) (= x15^0 x15^post)) (= x7^0 x7^post)) (= y12^0 y12^post)) (= y16^0 y16^post)) (= y8^0 y8^post)))
    (cfg_trans2 pc^0 l16 pc^post l13 (and (and (and (and (and (and (and (and (and (and (and (and (and (and (and (and (and (and (<= (+ 1 y12^0) (+ 0 x11^0)) (= i^0 i^post)) (= i13^0 i13^post)) (= i17^0 i17^post)) (= i9^0 i9^post)) (= j^0 j^post)) (= k^0 k^post)) (= ret_foo10^0 ret_foo10^post)) (= ret_foo14^0 ret_foo14^post)) (= ret_foo18^0 ret_foo18^post)) (= tmp^0 tmp^post)) (= tmp___0^0 tmp___0^post)) (= tmp___1^0 tmp___1^post)) (= x11^0 x11^post)) (= x15^0 x15^post)) (= x7^0 x7^post)) (= y12^0 y12^post)) (= y16^0 y16^post)) (= y8^0 y8^post)))
    (cfg_trans2 pc^0 l16 pc^post l13 (and (and (and (and (and (and (and (and (and (and (and (and (and (and (and (and (and (and (<= (+ 1 x11^0) (+ 0 y12^0)) (= i^0 i^post)) (= i13^0 i13^post)) (= i17^0 i17^post)) (= i9^0 i9^post)) (= j^0 j^post)) (= k^0 k^post)) (= ret_foo10^0 ret_foo10^post)) (= ret_foo14^0 ret_foo14^post)) (= ret_foo18^0 ret_foo18^post)) (= tmp^0 tmp^post)) (= tmp___0^0 tmp___0^post)) (= tmp___1^0 tmp___1^post)) (= x11^0 x11^post)) (= x15^0 x15^post)) (= x7^0 x7^post)) (= y12^0 y12^post)) (= y16^0 y16^post)) (= y8^0 y8^post)))
    (cfg_trans2 pc^0 l16 pc^post l12 (and (and (and (and (and (and (and (and (and (and (and (and (and (and (and (and (and (and (and (<= (+ 0 x11^0) (+ 0 y12^0)) (<= (+ 0 y12^0) (+ 0 x11^0))) (= ret_foo14^post (+ 0 x11^0))) (= i^0 i^post)) (= i13^0 i13^post)) (= i17^0 i17^post)) (= i9^0 i9^post)) (= j^0 j^post)) (= k^0 k^post)) (= ret_foo10^0 ret_foo10^post)) (= ret_foo18^0 ret_foo18^post)) (= tmp^0 tmp^post)) (= tmp___0^0 tmp___0^post)) (= tmp___1^0 tmp___1^post)) (= x11^0 x11^post)) (= x15^0 x15^post)) (= x7^0 x7^post)) (= y12^0 y12^post)) (= y16^0 y16^post)) (= y8^0 y8^post)))
    (cfg_trans2 pc^0 l8 pc^post l9 (and (and (and (and (and (and (and (and (and (and (and (and (and (and (and (and (and (= i^0 i^post) (= i13^0 i13^post)) (= i17^0 i17^post)) (= i9^0 i9^post)) (= j^0 j^post)) (= k^0 k^post)) (= ret_foo10^0 ret_foo10^post)) (= ret_foo14^0 ret_foo14^post)) (= ret_foo18^0 ret_foo18^post)) (= tmp^0 tmp^post)) (= tmp___0^0 tmp___0^post)) (= tmp___1^0 tmp___1^post)) (= x11^0 x11^post)) (= x15^0 x15^post)) (= x7^0 x7^post)) (= y12^0 y12^post)) (= y16^0 y16^post)) (= y8^0 y8^post)))
    (cfg_trans2 pc^0 l2 pc^post l16 (and (and (and (and (and (and (and (and (and (and (and (and (and (and (and (and (and (= tmp^post (+ 0 ret_foo10^0)) (= i^post (+ 0 tmp^post))) (= x11^post -3)) (= y12^post 4)) (= i13^post 0)) (= i17^0 i17^post)) (= i9^0 i9^post)) (= j^0 j^post)) (= k^0 k^post)) (= ret_foo10^0 ret_foo10^post)) (= ret_foo14^0 ret_foo14^post)) (= ret_foo18^0 ret_foo18^post)) (= tmp___0^0 tmp___0^post)) (= tmp___1^0 tmp___1^post)) (= x15^0 x15^post)) (= x7^0 x7^post)) (= y16^0 y16^post)) (= y8^0 y8^post)))
    (cfg_trans2 pc^0 l17 pc^post l1 (and (and (and (and (and (and (and (and (and (and (and (and (and (and (and (and (and (and (<= (+ 0 x7^0) 0) (= i^0 i^post)) (= i13^0 i13^post)) (= i17^0 i17^post)) (= i9^0 i9^post)) (= j^0 j^post)) (= k^0 k^post)) (= ret_foo10^0 ret_foo10^post)) (= ret_foo14^0 ret_foo14^post)) (= ret_foo18^0 ret_foo18^post)) (= tmp^0 tmp^post)) (= tmp___0^0 tmp___0^post)) (= tmp___1^0 tmp___1^post)) (= x11^0 x11^post)) (= x15^0 x15^post)) (= x7^0 x7^post)) (= y12^0 y12^post)) (= y16^0 y16^post)) (= y8^0 y8^post)))
    (cfg_trans2 pc^0 l17 pc^post l1 (and (and (and (and (and (and (and (and (and (and (and (and (and (and (and (and (and (and (<= 1 (+ 0 x7^0)) (= y8^post (+ (+ 0 x7^0) y8^0))) (= i^0 i^post)) (= i13^0 i13^post)) (= i17^0 i17^post)) (= i9^0 i9^post)) (= j^0 j^post)) (= k^0 k^post)) (= ret_foo10^0 ret_foo10^post)) (= ret_foo14^0 ret_foo14^post)) (= ret_foo18^0 ret_foo18^post)) (= tmp^0 tmp^post)) (= tmp___0^0 tmp___0^post)) (= tmp___1^0 tmp___1^post)) (= x11^0 x11^post)) (= x15^0 x15^post)) (= x7^0 x7^post)) (= y12^0 y12^post)) (= y16^0 y16^post)))
    (cfg_trans2 pc^0 l10 pc^post l2 (and (and (and (and (and (and (and (and (and (and (and (and (and (and (and (and (and (and (<= (+ 1 x7^0) (+ 0 i9^0)) (= ret_foo10^post (+ 0 y8^0))) (= i^0 i^post)) (= i13^0 i13^post)) (= i17^0 i17^post)) (= i9^0 i9^post)) (= j^0 j^post)) (= k^0 k^post)) (= ret_foo14^0 ret_foo14^post)) (= ret_foo18^0 ret_foo18^post)) (= tmp^0 tmp^post)) (= tmp___0^0 tmp___0^post)) (= tmp___1^0 tmp___1^post)) (= x11^0 x11^post)) (= x15^0 x15^post)) (= x7^0 x7^post)) (= y12^0 y12^post)) (= y16^0 y16^post)) (= y8^0 y8^post)))
    (cfg_trans2 pc^0 l10 pc^post l17 (and (and (and (and (and (and (and (and (and (and (and (and (and (and (and (and (and (and (<= (+ 0 i9^0) (+ 0 x7^0)) (= i^0 i^post)) (= i13^0 i13^post)) (= i17^0 i17^post)) (= i9^0 i9^post)) (= j^0 j^post)) (= k^0 k^post)) (= ret_foo10^0 ret_foo10^post)) (= ret_foo14^0 ret_foo14^post)) (= ret_foo18^0 ret_foo18^post)) (= tmp^0 tmp^post)) (= tmp___0^0 tmp___0^post)) (= tmp___1^0 tmp___1^post)) (= x11^0 x11^post)) (= x15^0 x15^post)) (= x7^0 x7^post)) (= y12^0 y12^post)) (= y16^0 y16^post)) (= y8^0 y8^post)))
    (cfg_trans2 pc^0 l18 pc^post l0 (and (and (and (and (and (and (and (and (and (and (and (and (and (and (and (and (and (= x7^post 3) (= y8^post 3)) (= i9^post 0)) (= i^0 i^post)) (= i13^0 i13^post)) (= i17^0 i17^post)) (= j^0 j^post)) (= k^0 k^post)) (= ret_foo10^0 ret_foo10^post)) (= ret_foo14^0 ret_foo14^post)) (= ret_foo18^0 ret_foo18^post)) (= tmp^0 tmp^post)) (= tmp___0^0 tmp___0^post)) (= tmp___1^0 tmp___1^post)) (= x11^0 x11^post)) (= x15^0 x15^post)) (= y12^0 y12^post)) (= y16^0 y16^post)))
    (cfg_trans2 pc^0 l19 pc^post l18 (and (and (and (and (and (and (and (and (and (and (and (and (and (and (and (and (and (= i^0 i^post) (= i13^0 i13^post)) (= i17^0 i17^post)) (= i9^0 i9^post)) (= j^0 j^post)) (= k^0 k^post)) (= ret_foo10^0 ret_foo10^post)) (= ret_foo14^0 ret_foo14^post)) (= ret_foo18^0 ret_foo18^post)) (= tmp^0 tmp^post)) (= tmp___0^0 tmp___0^post)) (= tmp___1^0 tmp___1^post)) (= x11^0 x11^post)) (= x15^0 x15^post)) (= x7^0 x7^post)) (= y12^0 y12^post)) (= y16^0 y16^post)) (= y8^0 y8^post)))
  )
)
